 C 
 1.0000000000000000
     3.5607451100000000    0.0000000000000000    0.0000000000000000
     0.0000000000000000    3.5607451100000000    0.0000000000000000
     0.0000000000000000    0.0000000000000000    3.5607451100000000
 C  
   8
Direct
  0.1250000000000000  0.1250000000000000  0.6249999999999999
  0.3750000000000000  0.3750000000000000  0.8750000000000001
  0.1250000000000000  0.6249999999999999  0.1250000000000000
  0.3750000000000000  0.8750000000000001  0.3750000000000000
  0.6249999999999999  0.1250000000000000  0.1250000000000000
  0.8750000000000001  0.3750000000000000  0.3750000000000000
  0.6249999999999999  0.6249999999999999  0.6249999999999999
  0.8750000000000001  0.8750000000000001  0.8750000000000001
