 C 
 1.0000000000000000
-0.8473917285219374 3.24687151396975 1.1910744597183243
3.244177478758942 1.1711942105775892 -0.8846029311570951
-1.1983928751185022 0.8746629243715726 -3.236931420957801
 C  
   8
Direct
  0.1250000000000000  0.1250000000000000  0.6249999999999999
  0.3750000000000000  0.3750000000000000  0.8750000000000001
  0.1250000000000000  0.6249999999999999  0.1250000000000000
  0.3750000000000000  0.8750000000000001  0.3750000000000000
  0.6249999999999999  0.1250000000000000  0.1250000000000000
  0.8750000000000001  0.3750000000000000  0.3750000000000000
  0.6249999999999999  0.6249999999999999  0.6249999999999999
  0.8750000000000001  0.8750000000000001  0.8750000000000001
