 C 
 1.0000000000000000
0.5211351827645755 -3.453614078732999 -0.6927291352693781
3.0459841376988206 0.7935308344475418 -1.6646907178383237
1.768984028351024 -0.3489474865178372 3.0704782848085377
 C  
   8
Direct
  0.1250000000000000  0.1250000000000000  0.6249999999999999
  0.3750000000000000  0.3750000000000000  0.8750000000000001
  0.1250000000000000  0.6249999999999999  0.1250000000000000
  0.3750000000000000  0.8750000000000001  0.3750000000000000
  0.6249999999999999  0.1250000000000000  0.1250000000000000
  0.8750000000000001  0.3750000000000000  0.3750000000000000
  0.6249999999999999  0.6249999999999999  0.6249999999999999
  0.8750000000000001  0.8750000000000001  0.8750000000000001
