# Step: Static Calculation
0
G
4 4 1
0 0 0
# Step: Dynamical Calculation
0
G
4 4 1
0 0 0
