Mo  S                                   
   1.00000000000000     
     3.1546372595303382    0.7255665696919777    0.0000000000000000
    -1.5773184250379924    2.3692127010183208    0.0000000000000000
     0.0000000000000000    0.0000000000000000   15.5521314948634792
   Mo   S 
     1     2
Selective dynamics
Direct
  0.6806863644538557  0.3287681973187192  0.4999999965000015   T   T   T
  0.3263234817730660  0.6689492373406358  0.4000354540923031   T   T   T
  0.3263234817730660  0.6689492373406358  0.5999645459076969   T   T   T
 
  0.00000000E+00  0.00000000E+00  0.00000000E+00
  0.00000000E+00  0.00000000E+00  0.00000000E+00
  0.00000000E+00  0.00000000E+00  0.00000000E+00
