INCAR created by Atomic Simulation Environment
 ENCUT = 600.000000
 SIGMA = 0.100000
 EDIFF = 1.00e-06
 EDIFFG = 1.00e-05
 GGA = PE
 PREC = accurate
 IBRION = 2
 ISIF = 2
 ISMEAR = 0
 ISTART = 0
 ISYM = 2
 NPAR = 4
 NSW = 0
 IVDW = 12
 LCHARG = .FALSE.
 LPLANE = .FALSE.
 LVDW = .TRUE.
 LWAVE = .FALSE.
 LREAL = .FALSE.
