Mo  S 
 1.0000000000000000
     3.1546372595303382    0.7571129422872811    0.0000000000000000
    -1.5773184250379924    2.3534395167679412    0.0000000000000000
     0.0000000000000000    0.0000000000000000   15.5521314948634792
 Mo  S  
   1   2
Selective dynamics
Cartesian
  1.5773187232446659  1.2892217919337570  7.7760656929993024   T   T   T
  0.0000001112476799  1.8213306671214649  6.2073582830764620   T   T   T
  0.0000001112476799  1.8213306671214649  9.3447732117870146   T   T   T
