 B  N 
 1.0000000000000000
     3.6260020000000002    0.0000000000000000    0.0000000000000000
     0.0000000000000000    3.6260020000000002    0.0000000000000000
     0.0000000000000000    0.0000000000000000    3.6260020000000002
 B   N  
   4   4
Direct
  0.1249999999999999  0.1249999999999999  0.1249999999999999
  0.1249999999999999  0.6249999999999998  0.6249999999999998
  0.6249999999999998  0.1249999999999999  0.6249999999999998
  0.6249999999999998  0.6249999999999998  0.1249999999999999
  0.3749999999999998  0.3749999999999998  0.8750000000000002
  0.3749999999999998  0.8750000000000002  0.3749999999999998
  0.8750000000000002  0.3749999999999998  0.3749999999999998
  0.8750000000000002  0.8750000000000002  0.8750000000000002
