 B  N 
 1.0000000000000000
     3.6260020000000002    0.0000000000000000    0.0000000000000000
     0.0000000000000000    3.6260020000000002    0.0000000000000000
     0.0000000000000000    0.0000000000000000    3.6260020000000002
 B   N  
   4   4
Cartesian
  0.4532502499999995  0.4532502499999995  0.4532502499999995
  0.4532502499999995  2.2662512499999994  2.2662512499999994
  2.2662512499999994  0.4532502499999995  2.2662512499999994
  2.2662512499999994  2.2662512499999994  0.4532502499999995
  1.3597507499999995  1.3597507499999995  3.1727517500000006
  1.3597507499999995  3.1727517500000006  1.3597507499999995
  3.1727517500000006  1.3597507499999995  1.3597507499999995
  3.1727517500000006  3.1727517500000006  3.1727517500000006
