 B  N                                   
   1.00000000000000     
     3.6260020000000002    0.0000000000000000    1.1603206400000001
     0.0000000000000000    3.6260020000000002    0.0000000000000000
     1.1603206400000001    0.0000000000000000    3.9973046048000000
   B    N 
     4     4
Selective dynamics
Direct
  0.1250000000000000  0.0871786532468919  0.1250000000000000   T   T   T
  0.1250000000000000  0.5871786532468919  0.6250000000000000   T   T   T
  0.6250000000000000  0.0871786532468919  0.6250000000000000   T   T   T
  0.6250000000000000  0.5871786532468919  0.1250000000000000   T   T   T
  0.3750000000000000  0.4128213467531081  0.8750000000000000   T   T   T
  0.3750000000000000  0.9128213467531081  0.3750000000000000   T   T   T
  0.8750000000000000  0.4128213467531081  0.3750000000000000   T   T   T
  0.8750000000000000  0.9128213467531081  0.8750000000000000   T   T   T
 
  0.00000000E+00  0.00000000E+00  0.00000000E+00
  0.00000000E+00  0.00000000E+00  0.00000000E+00
  0.00000000E+00  0.00000000E+00  0.00000000E+00
  0.00000000E+00  0.00000000E+00  0.00000000E+00
  0.00000000E+00  0.00000000E+00  0.00000000E+00
  0.00000000E+00  0.00000000E+00  0.00000000E+00
  0.00000000E+00  0.00000000E+00  0.00000000E+00
  0.00000000E+00  0.00000000E+00  0.00000000E+00
