 B  N 
 1.0000000000000000
     3.6260020000000002    0.0000000000000000    1.1603206400000001
     0.0000000000000000    3.6260020000000002    0.0000000000000000
     1.1603206400000001    0.0000000000000000    3.9973046048000000
 B   N  
   4   4
Selective dynamics
Direct
  0.1249999999999999  0.1249999999999999  0.1249999999999999   T   T   T
  0.1249999999999999  0.6249999999999998  0.6249999999999998   T   T   T
  0.6249999999999997  0.1249999999999999  0.6250000000000000   T   T   T
  0.6249999999999998  0.6249999999999998  0.1249999999999999   T   T   T
  0.3749999999999998  0.3749999999999998  0.8750000000000002   T   T   T
  0.3749999999999998  0.8750000000000002  0.3749999999999998   T   T   T
  0.8750000000000002  0.3749999999999998  0.3749999999999999   T   T   T
  0.8750000000000000  0.8750000000000002  0.8750000000000002   T   T   T
