 C                                      
   1.00000000000000     
     1.7437250000000000   -1.4756608400000000    0.0000000000000000
     3.1143375000000000    0.6382480000000000    0.0000000000000000
     0.0000000000000000    0.0000000000000000   20.0000000000000000
   C 
     2
Selective dynamics
Direct
  0.6399869902372287  0.1546410941369184  0.5000000000000000   T   T   T
  0.3600130097627712  0.8453589058630817  0.5000000000000000   T   T   T
 
  0.00000000E+00  0.00000000E+00  0.00000000E+00
  0.00000000E+00  0.00000000E+00  0.00000000E+00
