 C 
 1.0000000000000000
     1.7437250000000000   -1.4756608400000000    0.0000000000000000
     3.1143375000000000    0.6382480000000000    0.0000000000000000
     0.0000000000000000    0.0000000000000000   20.0000000000000000
 C  
   2
Selective dynamics
Direct
  0.3333333333323695  0.3333333333323694  0.5000000000000000   T   T   T
  0.6666666666676312  0.6666666666676303  0.5000000000000000   T   T   T
