 C                                      
   1.00000000000000     
     6.5241858684301572    0.0000000000000000    0.0000000000000000
     3.2620929342150786    4.2482035346359028    0.0000000000000000
     0.0000000000000000    0.0000000000000000   20.2174679357351437
   C 
     8
Selective dynamics
Direct
  0.1384714887705477  0.2019756086226695  0.4997243792518795   T   T   T
  0.1039358885799666  0.4996139295803602  0.4997704961094601   T   T   T
  0.1789565825660407  0.7300242638010948  0.4997382880672366   T   T   T
  0.3451368597662187  0.8414281425137626  0.4997123953899338   T   T   T
  0.8945379035013670  0.0027634077159329  0.4998006131295848   T   T   T
  0.8612816607938933  0.2982657522227974  0.4997156238636797   T   T   T
  0.6546077054317272  0.6582168071816461  0.4998296198910325   T   T   T
  0.8202897450799684  0.7709968537537952  0.4997686623473774   T   T   T
 
  0.15785706E-03 -0.10716040E-03  0.13880852E-03
 -0.55352520E-03  0.50188090E-03 -0.55934456E-04
  0.23827360E-03 -0.74949735E-03  0.21677861E-03
  0.55372842E-03  0.94498778E-03 -0.36812904E-04
  0.16374543E-04 -0.34623874E-03 -0.58507973E-06
 -0.35367858E-03 -0.43202354E-03 -0.12887775E-03
 -0.10374215E-03  0.47305843E-03 -0.75440507E-04
  0.66960443E-04 -0.30005789E-03 -0.78919902E-04
 
           1
   1.00000000000000     
  0.74677065E+01  0.12817335E-01  0.12887194E-01  0.74548542E+01
  0.13850830E+00  0.20195038E+00  0.49973125E+00
  0.10379198E+00  0.49973207E+00  0.49976773E+00
  0.17908132E+00  0.72984784E+00  0.49974901E+00
  0.34511051E+00  0.84165059E+00  0.49971057E+00
  0.89458116E+00  0.26819053E-02  0.49980058E+00
  0.86127830E+00  0.29816406E+00  0.49970925E+00
  0.65453613E+00  0.65832816E+00  0.49982589E+00
  0.82033532E+00  0.77092622E+00  0.49976476E+00
  0.00000000E+00  0.00000000E+00  0.00000000E+00
  0.00000000E+00  0.00000000E+00  0.00000000E+00
  0.00000000E+00  0.00000000E+00  0.00000000E+00
  0.00000000E+00  0.00000000E+00  0.00000000E+00
  0.00000000E+00  0.00000000E+00  0.00000000E+00
  0.00000000E+00  0.00000000E+00  0.00000000E+00
  0.00000000E+00  0.00000000E+00  0.00000000E+00
  0.00000000E+00  0.00000000E+00  0.00000000E+00
  0.00000000E+00  0.00000000E+00  0.00000000E+00
  0.00000000E+00  0.00000000E+00  0.00000000E+00
  0.00000000E+00  0.00000000E+00  0.00000000E+00
  0.00000000E+00  0.00000000E+00  0.00000000E+00
  0.00000000E+00  0.00000000E+00  0.00000000E+00
  0.00000000E+00  0.00000000E+00  0.00000000E+00
  0.00000000E+00  0.00000000E+00  0.00000000E+00
  0.00000000E+00  0.00000000E+00  0.00000000E+00
