ENCUT = 600
EDIFF = 1e-06
EDIFFG = 1e-05
ALGO = normal
IALGO = 48
MAXMIX = 40
IBRION = 0
NBLOCK = 1
KBLOCK = 10
POTIM = 1
ISYM = 0
ISIF = 2
SMASS = 2
MDALGO = 2
NSW = 500
TEBEG = 300
PSTRESS = 0.0001
LREAL = False
PREC = normal
ISTART = 0
ISMEAR = 2
SIGMA = 0.2
NPAR = 13
NCORE = 1
NSIM = 4
NELMIN = 4
NWRITE = 0
LCHARG = False
LPLANE = True
LWAVE = False
IWAVPR = 11
LVDW = True
IVDW = 12
