 C 
 1.0000000000000000
     6.5241858684301572    0.0000000000000000   -0.0000000000000000
     3.2620929342150786    4.2482035346359028   -0.0000000000000000
    -0.0000000000000000    0.0000000000000000   20.2174679357351437
 C  
   8
Selective dynamics
Direct
  0.1539637540212991  0.1621122278305655  0.5020471454321610   T   T   T
  0.3405949392626307  0.3397485765548318  0.5002285845581286   T   T   T
  0.1904259260297979  0.6489670233572185  0.4999060280739463   T   T   T
  0.3235190553179912  0.8542202968709840  0.4994432337181683   T   T   T
  0.6638736763563862  0.1508036190684596  0.5011468037470075   T   T   T
  0.8276853963208343  0.3409167516297906  0.4969909971395697   T   T   T
  0.6774592988905036  0.6657913861538396  0.4999639770192753   T   T   T
  0.8193553164209816  0.8409290785867983  0.4985053977252268   T   T   T
