 C                                      
   1.00000000000000     
     2.4660000000000002    0.4459686770217691    0.0000000000000000
     1.6890670404948982    2.5218392676612140    0.0000000000000000
     0.0000000000000000    0.0000000000000000   20.0000000000000000
   C 
     2
Selective dynamics
Direct
  0.6504109860158925  0.1342837043170294  0.5000000000000000   T   T   T
  0.3495890139841076  0.8657162956829708  0.5000000000000000   T   T   T
 
  0.00000000E+00  0.00000000E+00  0.00000000E+00
  0.00000000E+00  0.00000000E+00  0.00000000E+00
