 C 
 1.0000000000000000
     2.4660000000000002    0.4459686770217691    0.0000000000000000
     1.6890670404948982    2.5218392676612140    0.0000000000000000
     0.0000000000000000    0.0000000000000000   20.0000000000000000
 C  
   2
Selective dynamics
Direct
  0.3333333333323694  0.3333333333323695  0.5000000000000000   T   T   T
  0.6666666666676307  0.6666666666676306  0.5000000000000000   T   T   T
