 C 
 1.0000000000000000
2.466000 0.000000 0.0
1.233000 2.135619 0.0
     0.0000000000000000    0.0000000000000000   20.0000000000000000
 C  
   2
Direct
  0.3333333333323694  0.3333333333323694  0.5000000000000000
  0.6666666666676309  0.6666666666676305  0.5000000000000000
