 C 
 1.0000000000000000
     2.4660000000000002    0.0000000000000000    0.0000000000000000
     1.2330000000000001    2.1356186457300006    0.0000000000000000
     0.0000000000000000    0.0000000000000000   20.0000000000000000
 C  
   2
Cartesian
  1.2329999999964345  0.7118728819079416 10.0000000000000000
  2.4660000000035662  1.4237457638220590 10.0000000000000000
