 C                                      
   1.00000000000000     
     2.4660000000000002    0.3630551697741001    0.0000000000000000
     1.6522200000000000    2.1356186457300006    0.0000000000000000
     0.0000000000000000    0.0000000000000000   20.0000000000000000
   C 
     2
Selective dynamics
Direct
  0.3638158199401302  0.3515806575315505  0.5000000000000000   T   T   T
  0.6361841800598697  0.6484193424684497  0.5000000000000000   T   T   T
 
  0.00000000E+00  0.00000000E+00  0.00000000E+00
  0.00000000E+00  0.00000000E+00  0.00000000E+00
