 C 
 1.0000000000000000
     2.4660000000000002    0.3630551697741001    0.0000000000000000
     1.6522200000000000    2.1356186457300006    0.0000000000000000
     0.0000000000000000    0.0000000000000000   20.0000000000000000
 C  
   2
Selective dynamics
Direct
  0.3333333333323694  0.3333333333323694  0.5000000000000000   T   T   T
  0.6666666666676309  0.6666666666676305  0.5000000000000000   T   T   T
