 C                                      
   1.00000000000000     
     2.0177573239182043    1.2877493227846062   -1.3851359031534891
     2.9128698225907059   -0.4972394013008576    1.6783791611096237
     0.3503576983651813   -3.2822797561832942   -2.1630456864878020
   C 
     8
Selective dynamics
Direct
  0.1537056676633001  0.0906075026855069  0.6657831888184211   T   T   T
  0.3462943323367000  0.4093924973144932  0.8342168111815789   T   T   T
  0.1537056676633001  0.5906075026855070  0.1657831888184213   T   T   T
  0.3462943323367000  0.9093924973144930  0.3342168111815789   T   T   T
  0.6537056676633001  0.0906075026855069  0.1657831888184213   T   T   T
  0.8462943323366999  0.4093924973144932  0.3342168111815789   T   T   T
  0.6537056676633001  0.5906075026855070  0.6657831888184210   T   T   T
  0.8462943323366999  0.9093924973144930  0.8342168111815789   T   T   T
 
  0.00000000E+00  0.00000000E+00  0.00000000E+00
  0.00000000E+00  0.00000000E+00  0.00000000E+00
  0.00000000E+00  0.00000000E+00  0.00000000E+00
  0.00000000E+00  0.00000000E+00  0.00000000E+00
  0.00000000E+00  0.00000000E+00  0.00000000E+00
  0.00000000E+00  0.00000000E+00  0.00000000E+00
  0.00000000E+00  0.00000000E+00  0.00000000E+00
  0.00000000E+00  0.00000000E+00  0.00000000E+00
