Mo  S                                   
   1.00000000000000     
     3.1543188443119612   -0.0000000005630632   -0.0000000000000000
    -1.5771592179370952    2.7317201837198648   -0.0000000000000000
    -0.0000000000000000    0.0000000000000000   15.5552714960096985
   Mo   S 
     1     2
Direct
  0.6666666720000052  0.3333333280000019  0.4999999965000015
  0.3333333279999948  0.6666666720000052  0.3991459901488069
  0.3333333279999948  0.6666666720000052  0.6008540098511932
 
  0.00000000E+00  0.00000000E+00  0.00000000E+00
  0.00000000E+00  0.00000000E+00  0.00000000E+00
  0.00000000E+00  0.00000000E+00  0.00000000E+00
