INCAR created by Atomic Simulation Environment
 ENCUT = 500.000000
 POTIM = 0.100000
 PSTRESS = 0.001000
 SIGMA = 0.100000
 EDIFF = 1.00e-06
 EDIFFG = -1.00e-03
 ALGO = normal
 GGA = PE
 PREC = accurate
 IALGO = 48
 IBRION = 2
 ISIF = 4
 ISMEAR = 0
 ISTART = 0
 ISYM = 2
 NPAR = 11
 NSIM = 4
 NSW = 300
 IVDW = 12
 LCHARG = .FALSE.
 LPLANE = .TRUE.
 LVDW = .TRUE.
 LWAVE = .FALSE.
 LREAL = .FALSE.
