Mo  S 
 1.0000000000000000
     3.1542559697681436   -0.0000000004374539   -0.0000000000000000
    -1.5771277805604860    2.7316657326342666    0.0000000000000000
     0.0000000000000000    0.0000000000000000   15.5558916365451587
 Mo  S  
   1   2
Cartesian
  1.5771280782259938  0.9105552293509076  7.7779457638269820
  0.0000001109816526  1.8211105028459245  6.2089460780807695
  0.0000001109816526  1.8211105028459245  9.3469455584643892
