C                                       
   1.00000000000000     
     2.0177573239182043    1.2877493227846062   -1.9299303806114043
     2.9128698225907059   -0.4972394013008576    3.0061720278229025
     0.3503576983651813   -3.2822797561832942   -1.6799128956707354
   C 
     8
Selective dynamics
Direct
  0.1631434143671083  0.0833294170113529  0.6665686310791660   T   T   T
  0.3368565856328917  0.4166705829886471  0.8334313689208340   T   T   T
  0.1631434143671083  0.5833294170113531  0.1665686310791660   T   T   T
  0.3368565856328917  0.9166705829886469  0.3334313689208341   T   T   T
  0.6631434143671081  0.0833294170113529  0.1665686310791660   T   T   T
  0.8368565856328919  0.4166705829886471  0.3334313689208341   T   T   T
  0.6631434143671081  0.5833294170113531  0.6665686310791660   T   T   T
  0.8368565856328919  0.9166705829886469  0.8334313689208340   T   T   T
 
  0.00000000E+00  0.00000000E+00  0.00000000E+00
  0.00000000E+00  0.00000000E+00  0.00000000E+00
  0.00000000E+00  0.00000000E+00  0.00000000E+00
  0.00000000E+00  0.00000000E+00  0.00000000E+00
  0.00000000E+00  0.00000000E+00  0.00000000E+00
  0.00000000E+00  0.00000000E+00  0.00000000E+00
  0.00000000E+00  0.00000000E+00  0.00000000E+00
  0.00000000E+00  0.00000000E+00  0.00000000E+00
