C 
 1.0000000000000000
     2.0177573239182043    1.2877493227846062   -1.9299303806114043
     2.9128698225907059   -0.4972394013008576    3.0061720278229025
     0.3503576983651813   -3.2822797561832942   -1.6799128956707354
 C  
   8
Selective dynamics
Direct
  0.1250000000000000  0.1250000000000000  0.6250000000000000   T   T   T
  0.3750000000000001  0.3750000000000000  0.8750000000000002   T   T   T
  0.1249999999999999  0.6249999999999999  0.1250000000000001   T   T   T
  0.3750000000000002  0.8750000000000000  0.3750000000000002   T   T   T
  0.6249999999999999  0.1250000000000000  0.1250000000000001   T   T   T
  0.8750000000000003  0.3749999999999999  0.3750000000000002   T   T   T
  0.6250000000000000  0.6249999999999998  0.6250000000000001   T   T   T
  0.8750000000000003  0.8750000000000001  0.8750000000000003   T   T   T
