 C                                      
   1.00000000000000     
     4.9054029085941027    0.0000000000000000    0.0000000000000000
     2.4527014542970513    4.2482035346359028    0.0000000000000000
     0.0000000000000000    0.0000000000000000   20.2174679357351437
   C 
     8
Selective dynamics
Direct
  0.1608576126712222  0.1641568208974462  0.5010356273784495   T   T   T
  0.3257000140069835  0.3346274723691209  0.5021380145016607   T   T   T
  0.1725629067681567  0.6711013920969080  0.5022233012289590   T   T   T
  0.3383305014205220  0.8342971852540586  0.4975135541962885   T   T   T
  0.6594023864929142  0.1652651189158618  0.4995568915341266   T   T   T
  0.8351987237558092  0.3273575158625874  0.4978448398350821   T   T   T
  0.6721584952029573  0.6689898765601257  0.4992362118417688   T   T   T
  0.8326667223018660  0.8376935780963848  0.4986837268971485   T   T   T
 
  0.00000000E+00  0.00000000E+00  0.00000000E+00
  0.00000000E+00  0.00000000E+00  0.00000000E+00
  0.00000000E+00  0.00000000E+00  0.00000000E+00
  0.00000000E+00  0.00000000E+00  0.00000000E+00
  0.00000000E+00  0.00000000E+00  0.00000000E+00
  0.00000000E+00  0.00000000E+00  0.00000000E+00
  0.00000000E+00  0.00000000E+00  0.00000000E+00
  0.00000000E+00  0.00000000E+00  0.00000000E+00
