 C 
 1.0000000000000000
     4.9054029085941027    0.0000000000000000   -0.0000000000000000
     2.4527014542970513    4.2482035346359028   -0.0000000000000000
    -0.0000000000000000    0.0000000000000000   20.2174679357351437
 C  
   8
Selective dynamics
Cartesian
  1.1916990744148526  0.6973715867711091 10.1296717311847235   T   T   T
  2.4184310841664889  1.4215656109047834 10.1519592075010436   T   T   T
  2.4925019451528478  2.8509753060051612 10.1536834891755419   T   T   T
  3.7059293453228852  3.5442642513330678 10.0584643295571503   T   T   T
  3.6399803821457271  0.7020798623303848 10.0997754366666950   T   T   T
  4.8998965039970592  1.3906813559770794 10.0651620863369136   T   T   T
  4.9380406805538462  2.8420051582383699 10.0932921052689046   T   T   T
  6.1391780187213705  3.5586928194108451 10.0821222586159429   T   T   T
