 C                                      
   1.00000000000000     
    -0.8473917285219374    2.9418104917018524    1.1910744597183243
     3.6658073945668743    1.1711942105775892   -0.8846029311570951
    -1.1983928751185022    0.8746629243715726   -2.0716361094129923
   C 
     8
Selective dynamics
Direct
  0.1205123240203239  0.1348944647517629  0.6181320079685485   T   T   T
  0.3794876759796760  0.3651055352482371  0.8818679920314515   T   T   T
  0.1205123240203239  0.6348944647517630  0.1181320079685483   T   T   T
  0.3794876759796760  0.8651055352482370  0.3818679920314517   T   T   T
  0.6205123240203239  0.1348944647517629  0.1181320079685483   T   T   T
  0.8794876759796761  0.3651055352482371  0.3818679920314518   T   T   T
  0.6205123240203239  0.6348944647517630  0.6181320079685485   T   T   T
  0.8794876759796761  0.8651055352482370  0.8818679920314515   T   T   T
 
  0.00000000E+00  0.00000000E+00  0.00000000E+00
  0.00000000E+00  0.00000000E+00  0.00000000E+00
  0.00000000E+00  0.00000000E+00  0.00000000E+00
  0.00000000E+00  0.00000000E+00  0.00000000E+00
  0.00000000E+00  0.00000000E+00  0.00000000E+00
  0.00000000E+00  0.00000000E+00  0.00000000E+00
  0.00000000E+00  0.00000000E+00  0.00000000E+00
  0.00000000E+00  0.00000000E+00  0.00000000E+00
