 C 
 1.0000000000000000
    -0.8473917285219374    2.9418104917018524    1.1910744597183243
     3.6658073945668743    1.1711942105775892   -0.8846029311570951
    -1.1983928751185022    0.8746629243715726   -2.0716361094129923
 C  
   8
Selective dynamics
Direct
  0.1250000000000001  0.1250000000000000  0.6249999999999998   T   T   T
  0.3749999999999999  0.3750000000000000  0.8750000000000001   T   T   T
  0.1250000000000000  0.6249999999999999  0.1249999999999999   T   T   T
  0.3750000000000001  0.8750000000000000  0.3749999999999999   T   T   T
  0.6250000000000001  0.1250000000000000  0.1250000000000000   T   T   T
  0.8750000000000002  0.3750000000000001  0.3749999999999999   T   T   T
  0.6250000000000000  0.6249999999999999  0.6249999999999997   T   T   T
  0.8750000000000003  0.8750000000000002  0.8749999999999999   T   T   T
