 C 
 1.0000000000000000
     3.5607451100000000    0.0000000000000000    0.0000000000000000
     0.0000000000000000    3.5607451100000000    0.0000000000000000
     0.0000000000000000    0.0000000000000000    3.5607451100000000
 C  
   8
Cartesian
  0.4450931387499999  0.4450931387499999  2.2254656937499995
  1.3352794162499999  1.3352794162499999  3.1156519712500002
  0.4450931387499999  2.2254656937499995  0.4450931387499999
  1.3352794162499999  3.1156519712500002  1.3352794162499999
  2.2254656937499995  0.4450931387499999  0.4450931387499999
  3.1156519712500002  1.3352794162499999  1.3352794162499999
  2.2254656937499995  2.2254656937499995  2.2254656937499995
  3.1156519712500002  3.1156519712500002  3.1156519712500002
