C 
 1.0000000000000000
2.0177573239182043 1.2877493227846062 -2.636145443982776
2.912869822590706 -0.49723940130085764 1.9866675899161554
0.3503576983651813 -3.282279756183294 -1.3352134000729992
 C  
   8
Direct
  0.1250000000000000  0.1250000000000000  0.6249999999999999
  0.3750000000000000  0.3750000000000000  0.8750000000000001
  0.1250000000000000  0.6249999999999999  0.1250000000000000
  0.3750000000000000  0.8750000000000001  0.3750000000000000
  0.6249999999999999  0.1250000000000000  0.1250000000000000
  0.8750000000000001  0.3750000000000000  0.3750000000000000
  0.6249999999999999  0.6249999999999999  0.6249999999999999
  0.8750000000000001  0.8750000000000001  0.8750000000000001
