 C                                      
   1.00000000000000     
     0.5211351827645755   -3.4536140787329992    0.8732147899829761
     3.0459841376988206    0.7935308344475418   -1.6646907178383237
     2.0347629715609576   -0.3489474865178372    3.0704782848085377
   C 
     8
Selective dynamics
Direct
  0.3386982335603644  0.3443483835176822  0.5701141258415782   T   T   T
  0.1613017664396355  0.1556516164823178  0.9298858741584218   T   T   T
  0.3386982335603645  0.8443483835176820  0.0701141258415778   T   T   T
  0.1613017664396355  0.6556516164823180  0.4298858741584222   T   T   T
  0.8386982335603642  0.3443483835176823  0.0701141258415778   T   T   T
  0.6613017664396357  0.1556516164823179  0.4298858741584222   T   T   T
  0.8386982335603643  0.8443483835176819  0.5701141258415782   T   T   T
  0.6613017664396358  0.6556516164823181  0.9298858741584218   T   T   T
 
  0.00000000E+00  0.00000000E+00  0.00000000E+00
  0.00000000E+00  0.00000000E+00  0.00000000E+00
  0.00000000E+00  0.00000000E+00  0.00000000E+00
  0.00000000E+00  0.00000000E+00  0.00000000E+00
  0.00000000E+00  0.00000000E+00  0.00000000E+00
  0.00000000E+00  0.00000000E+00  0.00000000E+00
  0.00000000E+00  0.00000000E+00  0.00000000E+00
  0.00000000E+00  0.00000000E+00  0.00000000E+00
