 C 
 1.0000000000000000
     0.5211351827645755   -3.4536140787329992    0.8732147899829761
     3.0459841376988206    0.7935308344475418   -1.6646907178383237
     2.0347629715609576   -0.3489474865178372    3.0704782848085377
 C  
   8
Selective dynamics
Direct
  0.1250000000000000  0.1250000000000000  0.6249999999999998   T   T   T
  0.3749999999999999  0.3750000000000002  0.8750000000000002   T   T   T
  0.1250000000000000  0.6249999999999999  0.1250000000000000   T   T   T
  0.3750000000000000  0.8750000000000001  0.3750000000000000   T   T   T
  0.6249999999999997  0.1250000000000000  0.1250000000000001   T   T   T
  0.8749999999999999  0.3750000000000000  0.3750000000000001   T   T   T
  0.6249999999999998  0.6249999999999998  0.6249999999999999   T   T   T
  0.8749999999999999  0.8749999999999999  0.8750000000000001   T   T   T
