INCAR created by Atomic Simulation Environment
 ENCUT = 600.000000
 POTIM = 1.000000
 SIGMA = 0.200000
 TEBEG = 300.000000
 EDIFF = 1.00e-06
 EDIFFG = 1.00e-05
 ALGO = normal
 GGA = PE
 PREC = normal
 IALGO = 48
 IBRION = 0
 ISIF = 3
 ISMEAR = 2
 ISTART = 0
 ISYM = 0
 IWAVPR = 11
 MAXMIX = 40
 NELMIN = 4
 NPAR = 13
 NSIM = 4
 NSW = 0
 NWRITE = 0
 NCORE = 1
 NBLOCK = 1
 KBLOCK = 10
 LCHARG = .FALSE.
 LPLANE = .TRUE.
 LWAVE = .FALSE.
 LREAL = .FALSE.
