 C 
 1.0000000000000000
     5.0330400703124303    0.0000000000000000    0.0000000000000000
    -2.5165200351562165    4.3587405591555815    0.0000000000000000
     0.0000000000000000    0.0000000000000000    8.3607140812864689
 C  
  32
Selective dynamics
Cartesian
  0.0000000000000087  1.4529135197185221  0.2599921901084595   T   T   T
  1.2582600175780982  0.7264567598592686  3.9203648505347748   T   T   T
  1.2582600175780982  0.7264567598592686  2.3501707104300769   T   T   T
  0.0000000000000087  1.4529135197185221  1.8301863302131580   T   T   T
  0.0000000000000087  1.4529135197185221  4.4403492307516936   T   T   T
  1.2582600175780982  0.7264567598592686  8.1007218911780097   T   T   T
  1.2582600175780982  0.7264567598592686  6.5305277510733113   T   T   T
  0.0000000000000087  1.4529135197185221  6.0105433708563929   T   T   T
 -1.2582600175780996  3.6322837992963128  0.2599921901084595   T   T   T
 -0.0000000000000100  2.9058270394370593  3.9203648505347748   T   T   T
 -0.0000000000000100  2.9058270394370593  2.3501707104300769   T   T   T
 -1.2582600175780996  3.6322837992963128  1.8301863302131580   T   T   T
 -1.2582600175780996  3.6322837992963128  4.4403492307516936   T   T   T
 -0.0000000000000100  2.9058270394370593  8.1007218911780097   T   T   T
 -0.0000000000000100  2.9058270394370593  6.5305277510733113   T   T   T
 -1.2582600175780996  3.6322837992963128  6.0105433708563929   T   T   T
  2.5165200351562236  1.4529135197185221  0.2599921901084595   T   T   T
  3.7747800527343136  0.7264567598592686  3.9203648505347748   T   T   T
  3.7747800527343136  0.7264567598592686  2.3501707104300769   T   T   T
  2.5165200351562236  1.4529135197185221  1.8301863302131580   T   T   T
  2.5165200351562236  1.4529135197185221  4.4403492307516936   T   T   T
  3.7747800527343136  0.7264567598592686  8.1007218911780097   T   T   T
  3.7747800527343136  0.7264567598592686  6.5305277510733113   T   T   T
  2.5165200351562236  1.4529135197185221  6.0105433708563929   T   T   T
  1.2582600175781156  3.6322837992963128  0.2599921901084595   T   T   T
  2.5165200351562049  2.9058270394370593  3.9203648505347748   T   T   T
  2.5165200351562049  2.9058270394370593  2.3501707104300769   T   T   T
  1.2582600175781156  3.6322837992963128  1.8301863302131580   T   T   T
  1.2582600175781156  3.6322837992963128  4.4403492307516936   T   T   T
  2.5165200351562049  2.9058270394370593  8.1007218911780097   T   T   T
  2.5165200351562049  2.9058270394370593  6.5305277510733113   T   T   T
  1.2582600175781156  3.6322837992963128  6.0105433708563929   T   T   T
