# Step: Static Calculation
0
G
4 4 2
0 0 0
# Step: Dynamical Calculation
0
G
4 4 2
0 0 0
