 C                                      
   1.00000000000000     
     2.5165200351562151    0.0000000000000000    0.9814428137109239
    -1.2582600175781082    2.1793702795777907   -0.4907214068554622
     0.0000000000000000    0.0000000000000000    4.1803570406432344
   C 
     4
Selective dynamics
Direct
  0.5910043463730711  0.8211490197005054  0.0654656717137162   T   T   T
  0.4089956536269291  0.1788509802994947  0.9345343282862837   T   T   T
  0.7698553266725586  0.1788509802994947  0.5654656717137163   T   T   T
  0.2301446733274414  0.8211490197005054  0.4345343282862837   T   T   T
 
  0.00000000E+00  0.00000000E+00  0.00000000E+00
  0.00000000E+00  0.00000000E+00  0.00000000E+00
  0.00000000E+00  0.00000000E+00  0.00000000E+00
  0.00000000E+00  0.00000000E+00  0.00000000E+00
