 C 
 1.0000000000000000
     2.5165200351562151    0.0000000000000000    0.9814428137109239
    -1.2582600175781082    2.1793702795777907   -0.4907214068554622
     0.0000000000000000    0.0000000000000000    4.1803570406432344
 C  
   4
Selective dynamics
Direct
  0.3333333333333358  0.6666666666666644  0.0621937761728731   T   T   T
  0.6666666666666643  0.3333333333333356  0.9378062238271268   T   T   T
  0.6666666666666643  0.3333333333333356  0.5621937761728731   T   T   T
  0.3333333333333358  0.6666666666666644  0.4378062238271270   T   T   T
