 C 
 1.0000000000000000
     2.5165200351562151    0.0000000000000000    0.0000000000000000
    -1.2582600175781082    2.1793702795777907    0.0000000000000000
     0.0000000000000000    0.0000000000000000    4.1803570406432344
 C  
   4
Cartesian
  0.0000000000000087  1.4529135197185221  0.2599921901084595
  1.2582600175780982  0.7264567598592686  3.9203648505347748
  1.2582600175780982  0.7264567598592686  2.3501707104300769
  0.0000000000000087  1.4529135197185221  1.8301863302131580
